#################################
#                               #
# script for lammps to create   #
# a 3D simulation of IPCs!      #
#                               #
#################################

variable       inputfile        index   IPC_startingstate_manner.txt
variable       outputfile       index   outputFile.txt
variable       trajectoryfile   index   trajectory.lammpstrj
variable       Temp0            index   0.20
variable       Temp1            index   0.15
variable       Temp2            index   0.14
variable       Temp3            index   0.13
variable       Temp4            index   0.12
variable       Temp5            index   0.11

#
dimension      3
units          lj
boundary       p p p
atom_style     full

# read starting configuration
read_data      ${inputfile}

# interaction potential
#pair_style lj/cut/coul/cut 12.0
pair_style     table linear 120000
bond_style     harmonic
angle_style    harmonic
pair_modify    mix geometric tail yes


# force field parameters
# missing nonbonded parameters are inferred from mixing.
pair_coeff     1 1 potentials_for_lammps/BB.table BB
pair_coeff     1 2 potentials_for_lammps/Bs1.table Bs1
pair_coeff     2 2 potentials_for_lammps/s1s1.table s1s1
#pair_coeff      1 1 0.0537 2.80    # C of CO2 (27 K = 0.0537 kcal/mol)
#pair_coeff      2 2 0.1570 3.05    # O of CO2 (79 K = 0.1570 kcal/mol)
#bond_coeff      1 999.9 1.16       # C=O (999.9 = fake number since not used)
bond_coeff     1 999.9 0.22     # center-patch distance
angle_coeff	   1 999.9 180.0    # patch-patch angle


group plane id <> 1 514 # 168*3
group fluid id <> 515 5256

fix 1 fluid rigid/nvt molecule temp ${Temp0} ${Temp0} 1
fix 2 plane freeze

velocity fluid create ${Temp0} 53244 dist gaussian rot yes
run 0 # temperature may not be right due to the constraints not being applied yet
velocity fluid scale ${Temp0}       # now it should be

compute        k_tr  fluid  ke/rigid 1
compute        k_rot fluid  erotate/rigid 1

neighbor       0.3 bin
neigh_modify   every 1 check yes
thermo 500

#thermo_style multi
thermo_style   custom step   c_k_tr c_k_rot temp pe

#dump 1 fluid atom 100 dump.lammpstrj
# print logs and trajectory
log            ${outputfile}
# dump ID particle-type format print-interval file
dump           dumpcommand fluid atom 500 ${trajectoryfile}



timestep 0.0005

run 2000000
fix 1 fluid rigid/nvt molecule temp ${Temp1} ${Temp1} 1
run 2000000
fix 1 fluid rigid/nvt molecule temp ${Temp2} ${Temp2} 1
run 2000000
fix 1 fluid rigid/nvt molecule temp ${Temp3} ${Temp3} 1
run 2000000
fix 1 fluid rigid/nvt molecule temp ${Temp4} ${Temp4} 1
run 2000000
fix 1 fluid rigid/nvt molecule temp ${Temp5} ${Temp5} 1
run 2000000
